(set-logic QF_LIA)
(declare-fun x0 () Int)
(declare-fun x1 () Int)
(declare-fun x2 () Int)
(declare-fun x3 () Int)
(declare-fun x4 () Int)
(declare-fun x5 () Int)
(declare-fun x6 () Int)
(declare-fun x7 () Int)
(declare-fun x8 () Int)
(declare-fun x9 () Int)
(declare-fun A0 () Bool)
(declare-fun A1 () Bool)
(declare-fun A2 () Bool)
(declare-fun A3 () Bool)
(declare-fun A4 () Bool)
(declare-fun A5 () Bool)
(declare-fun A6 () Bool)
(declare-fun A7 () Bool)
(declare-fun A8 () Bool)
(declare-fun A9 () Bool)
(assert (let ((.def_0 (not A0))) (let ((.def_1 (not A6))) (let ((.def_2 (and .def_1 .def_0))) (let ((.def_3 (not .def_2))) (let ((.def_4 (* 1 x1))) (let ((.def_5 (< .def_4 1))) (let ((.def_6 (not .def_5))) (let ((.def_7 (* (- 1) x1))) (let ((.def_8 (< .def_7 1))) (let ((.def_9 (and .def_8 .def_6))) (let ((.def_10 (and .def_9 .def_3))) (let ((.def_11 (and A2 A7))) (let ((.def_12 (not .def_11))) (let ((.def_13 (* 1 x5))) (let ((.def_14 (* 1 x9))) (let ((.def_15 (+ .def_14 .def_13))) (let ((.def_16 (< .def_15 (- 1)))) (let ((.def_17 (not .def_16))) (let ((.def_18 (or .def_17 A6))) (let ((.def_19 (or .def_18 .def_12))) (let ((.def_20 (not .def_19))) (let ((.def_21 (and .def_20 .def_10))) (let ((.def_22 (* 1 x0))) (let ((.def_23 (* (- 1) x6))) (let ((.def_24 (+ .def_23 .def_22))) (let ((.def_25 (< .def_24 1))) (let ((.def_26 (not .def_25))) (let ((.def_27 (and .def_26 A5))) (let ((.def_28 (< .def_13 1))) (let ((.def_29 (or .def_28 .def_5))) (let ((.def_30 (and .def_29 .def_27))) (let ((.def_31 (not .def_30))) (let ((.def_32 (* 1 x8))) (let ((.def_33 (+ .def_32 .def_4))) (let ((.def_34 (< .def_33 (- 1)))) (let ((.def_35 (not .def_34))) (let ((.def_36 (* (- 1) x9))) (let ((.def_37 (* (- 1) x4))) (let ((.def_38 (+ .def_37 .def_36))) (let ((.def_39 (< .def_38 1))) (let ((.def_40 (or .def_39 .def_35))) (let ((.def_41 (not .def_40))) (let ((.def_42 (+ .def_37 .def_7))) (let ((.def_43 (< .def_42 1))) (let ((.def_44 (* (- 1) x8))) (let ((.def_45 (+ .def_44 .def_4))) (let ((.def_46 (< .def_45 (- 1)))) (let ((.def_47 (not .def_46))) (let ((.def_48 (and .def_47 .def_43))) (let ((.def_49 (and .def_48 .def_41))) (let ((.def_50 (or .def_49 .def_31))) (let ((.def_51 (not .def_50))) (let ((.def_52 (and .def_51 .def_21))) (let ((.def_53 (< .def_22 (- 1)))) (let ((.def_54 (* (- 1) x3))) (let ((.def_55 (< .def_54 (- 1)))) (let ((.def_56 (not .def_55))) (let ((.def_57 (or .def_56 .def_53))) (let ((.def_58 (not .def_57))) (let ((.def_59 (or A4 .def_53))) (let ((.def_60 (not .def_59))) (let ((.def_61 (= .def_60 .def_58))) (let ((.def_62 (not .def_61))) (let ((.def_63 (+ .def_13 .def_14))) (let ((.def_64 (< .def_63 1))) (let ((.def_65 (= .def_64 A2))) (let ((.def_66 (* (- 1) x5))) (let ((.def_67 (< .def_66 (- 1)))) (let ((.def_68 (or .def_67 A6))) (let ((.def_69 (= .def_68 .def_65))) (let ((.def_70 (not .def_69))) (let ((.def_71 (and .def_70 .def_62))) (let ((.def_72 (or .def_1 A2))) (let ((.def_73 (not .def_72))) (let ((.def_74 (+ .def_66 .def_36))) (let ((.def_75 (< .def_74 1))) (let ((.def_76 (not .def_75))) (let ((.def_77 (+ .def_23 .def_37))) (let ((.def_78 (< .def_77 1))) (let ((.def_79 (and .def_78 .def_76))) (let ((.def_80 (not .def_79))) (let ((.def_81 (or .def_80 .def_73))) (let ((.def_82 (* (- 1) x0))) (let ((.def_83 (< .def_82 (- 1)))) (let ((.def_84 (not .def_83))) (let ((.def_85 (* (- 1) x7))) (let ((.def_86 (< .def_85 (- 1)))) (let ((.def_87 (= .def_86 .def_84))) (let ((.def_88 (not .def_87))) (let ((.def_89 (* 1 x6))) (let ((.def_90 (< .def_89 (- 1)))) (let ((.def_91 (not .def_90))) (let ((.def_92 (and .def_1 .def_91))) (let ((.def_93 (or .def_92 .def_88))) (let ((.def_94 (or .def_93 .def_81))) (let ((.def_95 (and .def_94 .def_71))) (let ((.def_96 (not .def_95))) (let ((.def_97 (or .def_96 .def_52))) (let ((.def_98 (not .def_97))) (let ((.def_99 (+ .def_14 .def_85))) (let ((.def_100 (< .def_99 1))) (let ((.def_101 (and .def_100 A2))) (let ((.def_102 (not A2))) (let ((.def_103 (* 1 x3))) (let ((.def_104 (* (- 1) x2))) (let ((.def_105 (+ .def_104 .def_103))) (let ((.def_106 (< .def_105 1))) (let ((.def_107 (and .def_106 .def_102))) (let ((.def_108 (and .def_107 .def_101))) (let ((.def_109 (+ .def_4 .def_23))) (let ((.def_110 (< .def_109 (- 1)))) (let ((.def_111 (* 1 x2))) (let ((.def_112 (+ .def_36 .def_111))) (let ((.def_113 (< .def_112 1))) (let ((.def_114 (not .def_113))) (let ((.def_115 (or .def_114 .def_110))) (let ((.def_116 (not A4))) (let ((.def_117 (or .def_116 A3))) (let ((.def_118 (not .def_117))) (let ((.def_119 (and .def_118 .def_115))) (let ((.def_120 (and .def_119 .def_108))) (let ((.def_121 (not .def_120))) (let ((.def_122 (+ .def_85 .def_37))) (let ((.def_123 (< .def_122 (- 1)))) (let ((.def_124 (not .def_123))) (let ((.def_125 (or .def_124 .def_1))) (let ((.def_126 (not .def_125))) (let ((.def_127 (< .def_44 1))) (let ((.def_128 (not .def_127))) (let ((.def_129 (or A1 .def_128))) (let ((.def_130 (not .def_129))) (let ((.def_131 (or .def_130 .def_126))) (let ((.def_132 (not .def_131))) (let ((.def_133 (< .def_111 1))) (let ((.def_134 (not .def_133))) (let ((.def_135 (or .def_134 .def_5))) (let ((.def_136 (= A4 A8))) (let ((.def_137 (or .def_136 .def_135))) (let ((.def_138 (= .def_137 .def_132))) (let ((.def_139 (or .def_138 .def_121))) (let ((.def_140 (not A9))) (let ((.def_141 (and A6 .def_140))) (let ((.def_142 (* 1 x4))) (let ((.def_143 (< .def_142 (- 1)))) (let ((.def_144 (< .def_36 1))) (let ((.def_145 (and .def_144 .def_143))) (let ((.def_146 (or .def_145 .def_141))) (let ((.def_147 (< .def_142 1))) (let ((.def_148 (not .def_147))) (let ((.def_149 (not A7))) (let ((.def_150 (or .def_149 .def_148))) (let ((.def_151 (not .def_150))) (let ((.def_152 (+ .def_7 .def_44))) (let ((.def_153 (< .def_152 1))) (let ((.def_154 (and A5 .def_153))) (let ((.def_155 (not .def_154))) (let ((.def_156 (or .def_155 .def_151))) (let ((.def_157 (or .def_156 .def_146))) (let ((.def_158 (not .def_157))) (let ((.def_159 (and A0 A1))) (let ((.def_160 (not .def_159))) (let ((.def_161 (not .def_53))) (let ((.def_162 (+ .def_22 .def_4))) (let ((.def_163 (< .def_162 (- 1)))) (let ((.def_164 (not .def_163))) (let ((.def_165 (or .def_164 .def_161))) (let ((.def_166 (not .def_165))) (let ((.def_167 (and .def_166 .def_160))) (let ((.def_168 (not .def_167))) (let ((.def_169 (not .def_28))) (let ((.def_170 (and .def_169 .def_56))) (let ((.def_171 (not .def_170))) (let ((.def_172 (not A1))) (let ((.def_173 (and .def_172 A2))) (let ((.def_174 (and .def_173 .def_171))) (let ((.def_175 (not .def_174))) (let ((.def_176 (and .def_175 .def_168))) (let ((.def_177 (not .def_176))) (let ((.def_178 (or .def_177 .def_158))) (let ((.def_179 (not .def_178))) (let ((.def_180 (and .def_179 .def_139))) (let ((.def_181 (not .def_180))) (let ((.def_182 (or .def_181 .def_98))) (let ((.def_183 (not .def_182))) (let ((.def_184 (and .def_6 .def_8))) (let ((.def_185 (not .def_184))) (let ((.def_186 (+ .def_32 .def_23))) (let ((.def_187 (< .def_186 1))) (let ((.def_188 (not .def_187))) (let ((.def_189 (and A1 .def_188))) (let ((.def_190 (and .def_189 .def_185))) (let ((.def_191 (not .def_190))) (let ((.def_192 (or .def_0 A0))) (let ((.def_193 (+ .def_85 .def_7))) (let ((.def_194 (< .def_193 1))) (let ((.def_195 (not .def_194))) (let ((.def_196 (and .def_195 A6))) (let ((.def_197 (not .def_196))) (let ((.def_198 (or .def_197 .def_192))) (let ((.def_199 (not .def_198))) (let ((.def_200 (and .def_199 .def_191))) (let ((.def_201 (not .def_200))) (let ((.def_202 (< .def_4 (- 1)))) (let ((.def_203 (+ .def_36 .def_54))) (let ((.def_204 (< .def_203 1))) (let ((.def_205 (not .def_204))) (let ((.def_206 (or .def_205 .def_202))) (let ((.def_207 (not .def_206))) (let ((.def_208 (+ .def_4 .def_142))) (let ((.def_209 (< .def_208 (- 1)))) (let ((.def_210 (not .def_209))) (let ((.def_211 (or .def_210 .def_149))) (let ((.def_212 (= .def_211 .def_207))) (let ((.def_213 (< .def_82 1))) (let ((.def_214 (or A5 .def_213))) (let ((.def_215 (or A0 A3))) (let ((.def_216 (and .def_215 .def_214))) (let ((.def_217 (not .def_216))) (let ((.def_218 (or .def_217 .def_212))) (let ((.def_219 (not .def_218))) (let ((.def_220 (and .def_219 .def_201))) (let ((.def_221 (not A8))) (let ((.def_222 (or .def_221 .def_140))) (let ((.def_223 (+ .def_82 .def_142))) (let ((.def_224 (< .def_223 (- 1)))) (let ((.def_225 (not .def_224))) (let ((.def_226 (* 1 x7))) (let ((.def_227 (+ .def_66 .def_226))) (let ((.def_228 (< .def_227 (- 1)))) (let ((.def_229 (not .def_228))) (let ((.def_230 (= .def_229 .def_225))) (let ((.def_231 (and .def_230 .def_222))) (let ((.def_232 (not .def_231))) (let ((.def_233 (+ .def_14 .def_23))) (let ((.def_234 (< .def_233 1))) (let ((.def_235 (= .def_221 .def_234))) (let ((.def_236 (+ .def_142 .def_4))) (let ((.def_237 (< .def_236 (- 1)))) (let ((.def_238 (not .def_237))) (let ((.def_239 (and A3 .def_238))) (let ((.def_240 (and .def_239 .def_235))) (let ((.def_241 (not .def_240))) (let ((.def_242 (or .def_241 .def_232))) (let ((.def_243 (+ .def_103 .def_32))) (let ((.def_244 (< .def_243 1))) (let ((.def_245 (= .def_1 .def_244))) (let ((.def_246 (not A3))) (let ((.def_247 (and .def_246 .def_246))) (let ((.def_248 (= .def_247 .def_245))) (let ((.def_249 (< .def_89 1))) (let ((.def_250 (not .def_249))) (let ((.def_251 (and .def_250 .def_221))) (let ((.def_252 (not .def_251))) (let ((.def_253 (or .def_5 .def_148))) (let ((.def_254 (or .def_253 .def_252))) (let ((.def_255 (not .def_254))) (let ((.def_256 (and .def_255 .def_248))) (let ((.def_257 (not .def_256))) (let ((.def_258 (and .def_257 .def_242))) (let ((.def_259 (not .def_258))) (let ((.def_260 (or .def_259 .def_220))) (let ((.def_261 (not .def_260))) (let ((.def_262 (+ .def_66 .def_37))) (let ((.def_263 (< .def_262 (- 1)))) (let ((.def_264 (= .def_263 A3))) (let ((.def_265 (+ .def_104 .def_44))) (let ((.def_266 (< .def_265 1))) (let ((.def_267 (not .def_266))) (let ((.def_268 (not A5))) (let ((.def_269 (or .def_268 .def_267))) (let ((.def_270 (and .def_269 .def_264))) (let ((.def_271 (+ .def_226 .def_44))) (let ((.def_272 (< .def_271 (- 1)))) (let ((.def_273 (< .def_193 (- 1)))) (let ((.def_274 (not .def_273))) (let ((.def_275 (or .def_274 .def_272))) (let ((.def_276 (+ .def_85 .def_111))) (let ((.def_277 (< .def_276 (- 1)))) (let ((.def_278 (not .def_277))) (let ((.def_279 (and .def_149 .def_278))) (let ((.def_280 (and .def_279 .def_275))) (let ((.def_281 (= .def_280 .def_270))) (let ((.def_282 (not .def_281))) (let ((.def_283 (and .def_246 .def_221))) (let ((.def_284 (< .def_32 1))) (let ((.def_285 (not .def_284))) (let ((.def_286 (< .def_14 1))) (let ((.def_287 (= .def_286 .def_285))) (let ((.def_288 (= .def_287 .def_283))) (let ((.def_289 (not .def_288))) (let ((.def_290 (+ .def_104 .def_22))) (let ((.def_291 (< .def_290 1))) (let ((.def_292 (and .def_291 A8))) (let ((.def_293 (or .def_116 .def_116))) (let ((.def_294 (or .def_293 .def_292))) (let ((.def_295 (and .def_294 .def_289))) (let ((.def_296 (and .def_295 .def_282))) (let ((.def_297 (not .def_296))) (let ((.def_298 (or .def_140 A4))) (let ((.def_299 (not .def_298))) (let ((.def_300 (or .def_149 .def_140))) (let ((.def_301 (or .def_300 .def_299))) (let ((.def_302 (and A2 A3))) (let ((.def_303 (not .def_302))) (let ((.def_304 (< .def_44 (- 1)))) (let ((.def_305 (not .def_304))) (let ((.def_306 (or .def_305 A2))) (let ((.def_307 (not .def_306))) (let ((.def_308 (or .def_307 .def_303))) (let ((.def_309 (not .def_308))) (let ((.def_310 (or .def_309 .def_301))) (let ((.def_311 (+ .def_89 .def_4))) (let ((.def_312 (< .def_311 (- 1)))) (let ((.def_313 (not .def_312))) (let ((.def_314 (+ .def_44 .def_22))) (let ((.def_315 (< .def_314 (- 1)))) (let ((.def_316 (and .def_315 .def_313))) (let ((.def_317 (not .def_316))) (let ((.def_318 (+ .def_82 .def_44))) (let ((.def_319 (< .def_318 (- 1)))) (let ((.def_320 (and .def_246 .def_319))) (let ((.def_321 (not .def_320))) (let ((.def_322 (= .def_321 .def_317))) (let ((.def_323 (+ .def_36 .def_32))) (let ((.def_324 (< .def_323 (- 1)))) (let ((.def_325 (not .def_324))) (let ((.def_326 (+ .def_4 .def_226))) (let ((.def_327 (< .def_326 1))) (let ((.def_328 (not .def_327))) (let ((.def_329 (or .def_328 .def_325))) (let ((.def_330 (and A5 .def_221))) (let ((.def_331 (not .def_330))) (let ((.def_332 (and .def_331 .def_329))) (let ((.def_333 (and .def_332 .def_322))) (let ((.def_334 (or .def_333 .def_310))) (let ((.def_335 (and .def_334 .def_297))) (let ((.def_336 (or .def_335 .def_261))) (let ((.def_337 (= .def_336 .def_183))) (let ((.def_338 (not .def_337))) (let ((.def_339 (<= x9 1))) (let ((.def_340 (<= 0 x9))) (let ((.def_341 (<= x8 1))) (let ((.def_342 (<= 0 x8))) (let ((.def_343 (<= x7 1))) (let ((.def_344 (<= 0 x7))) (let ((.def_345 (<= x6 1))) (let ((.def_346 (<= 0 x6))) (let ((.def_347 (<= x5 1))) (let ((.def_348 (<= 0 x5))) (let ((.def_349 (<= x4 1))) (let ((.def_350 (<= 0 x4))) (let ((.def_351 (<= x3 1))) (let ((.def_352 (<= 0 x3))) (let ((.def_353 (<= x2 1))) (let ((.def_354 (<= 0 x2))) (let ((.def_355 (<= x1 1))) (let ((.def_356 (<= 0 x1))) (let ((.def_357 (<= x0 1))) (let ((.def_358 (<= 0 x0))) (let ((.def_359 (and .def_358 .def_357 .def_356 .def_355 .def_354 .def_353 .def_352 .def_351 .def_350 .def_349 .def_348 .def_347 .def_346 .def_345 .def_344 .def_343 .def_342 .def_341 .def_340 .def_339 .def_338))) .def_359)))))))))))))))))))))))))))))))))))))))))))))))))))))))))))))))))))))))))))))))))))))))))))))))))))))))))))))))))))))))))))))))))))))))))))))))))))))))))))))))))))))))))))))))))))))))))))))))))))))))))))))))))))))))))))))))))))))))))))))))))))))))))))))))))))))))))))))))))))))))))))))))))))))))))))))))))))))))))))))))))))))))))))))))))))))))))))))))))))))))))
(check-sat)
